\ LP format - for model browsing. Use MPS format to capture full model detail.
\ Signature: 0xbe3a3ad1cd673141
Minimize
  - 0.0554674474648472 y[1,15] - 0.0535297405586755 y[2,28]
   - 0.0554674474648472 y[2,4] - 0.0554674474648472 y[3,15]
   - 0.0554674474648472 y[5,15] - 0.0554674474648472 y[6,15]
   - 0.0554674474648472 y[7,15] - 0.0554674474648472 y[8,15]
   - 0.0554674474648472 y[9,15] - 0.0554674474648472 y[10,15]
   - 0.0554674474648472 y[11,15] - 0.0554674474648472 y[12,15]
   - 0.0535297405586755 y[13,28] - 0.0554674474648472 y[13,17]
   - 0.0554674474648472 y[14,15] - 0.0535297405586755 y[15,28]
   - 0.0554674474648472 y[15,4] - 0.0554674474648472 y[17,32]
   - 0.0554674474648472 y[18,22] - 0.0554674474648472 y[19,4]
   - 0.0535297405586755 y[21,28] - 0.0554674474648472 y[21,22]
   - 0.0554674474648472 y[22,20] - 0.0535297405586755 y[23,19]
   - 0.0535297405586755 y[24,27] - 0.0535297405586755 y[24,24]
   - 0.0535297405586755 y[26,26] - 0.0535297405586755 y[29,29]
   - 0.0535297405586755 y[32,28] - 0.0535297405586755 y[33,24]
   - 0.0554674474648472 y[33,32] - 0.0535297405586755 y[34,30]
   - 0.0554674474648472 y[34,32] - 0.0535297405586755 y[35,31]
   - 0.0554674474648472 y[35,32] - 0.0554674474648472 y[36,32]
   - 0.0535297405586755 y[37,29] - 0.0554674474648472 y[37,32]
   - 0.0535297405586755 y[38,31] - 0.0554674474648472 y[38,32]
   - 0.0535297405586755 y[39,28] - 0.0535297405586755 y[39,42]
   - 0.0554674474648472 y[39,40] - 0.0535297405586755 y[41,25]
   - 0.0535297405586755 y[41,42] - 0.0535297405586755 y[42,28]
   - 0.0535297405586755 y[42,31] - 0.0535297405586755 y[42,30]
   - 0.0535297405586755 y[42,29] - 0.0535297405586755 y[42,32]
   - 0.0535297405586755 y[42,24] - 0.0535297405586755 y[42,25]
   - 0.0535297405586755 y[42,26] - 0.0554674474648472 y[43,44]
   - 0.0535297405586755 y[44,32] - 0.0535297405586755 y[44,28]
   - 0.0554674474648472 y[44,47] - 0.0554674474648472 y[46,44]
   - 0.0535297405586755 y[47,32] - 0.0554674474648472 y[63,31]
   - 0.0535297405586755 y[68,67] - 0.0535297405586755 y[72,90]
   - 0.0535297405586755 y[73,42] - 0.0535297405586755 y[73,78]
   - 0.0535297405586755 y[74,97] - 0.0554674474648472 y[85,36]
   - 0.0554674474648472 y[87,86] - 0.0554674474648472 y[88,86]
   - 0.0535297405586755 y[89,73] - 0.0535297405586755 y[89,71]
   - 0.0535297405586755 y[89,97] - 0.0535297405586755 y[90,97]
   - 0.0535297405586755 y[90,47] - 0.0535297405586755 y[91,32]
   - 0.0535297405586755 y[92,100] - 0.0554674474648472 y[92,32]
   - 0.0535297405586755 y[93,28] - 0.0535297405586755 y[94,78]
   - 0.0535297405586755 y[94,101] - 0.0535297405586755 y[95,78]
   - 0.0535297405586755 y[95,101] - 0.0535297405586755 y[96,95]
   - 0.0535297405586755 y[96,93] - 0.0554674474648472 y[96,32]
   - 0.0535297405586755 y[98,94] - 0.0535297405586755 y[98,93]
   - 0.0554674474648472 y[98,32] - 0.0535297405586755 y[104,78]
   - 0.0535297405586755 y[105,78] - 0.0535297405586755 y[105,101]
   + 4.887434098902977 Constant
Subject To
 (1)microservice-belonging[1]: = 1
 (1)microservice-belonging[2]: = 1
 (1)microservice-belonging[3]: = 1
 (1)microservice-belonging[4]: = 1
 (1)microservice-belonging[5]: = 1
 (1)microservice-belonging[6]: = 1
 (1)microservice-belonging[7]: = 1
 (1)microservice-belonging[8]: = 1
 (1)microservice-belonging[9]: = 1
 (1)microservice-belonging[10]: = 1
 (1)microservice-belonging[11]: = 1
 (1)microservice-belonging[12]: = 1
 (1)microservice-belonging[13]: = 1
 (1)microservice-belonging[14]: = 1
 (1)microservice-belonging[15]: = 1
 (1)microservice-belonging[17]: = 1
 (1)microservice-belonging[18]: = 1
 (1)microservice-belonging[19]: = 1
 (1)microservice-belonging[20]: = 1
 (1)microservice-belonging[21]: = 1
 (1)microservice-belonging[22]: = 1
 (1)microservice-belonging[23]: = 1
 (1)microservice-belonging[24]: = 1
 (1)microservice-belonging[25]: = 1
 (1)microservice-belonging[26]: = 1
 (1)microservice-belonging[27]: = 1
 (1)microservice-belonging[28]: = 1
 (1)microservice-belonging[29]: = 1
 (1)microservice-belonging[30]: = 1
 (1)microservice-belonging[31]: = 1
 (1)microservice-belonging[32]: = 1
 (1)microservice-belonging[33]: = 1
 (1)microservice-belonging[34]: = 1
 (1)microservice-belonging[35]: = 1
 (1)microservice-belonging[36]: = 1
 (1)microservice-belonging[37]: = 1
 (1)microservice-belonging[38]: = 1
 (1)microservice-belonging[39]: = 1
 (1)microservice-belonging[40]: = 1
 (1)microservice-belonging[41]: = 1
 (1)microservice-belonging[42]: = 1
 (1)microservice-belonging[43]: = 1
 (1)microservice-belonging[44]: = 1
 (1)microservice-belonging[46]: = 1
 (1)microservice-belonging[47]: = 1
 (1)microservice-belonging[63]: = 1
 (1)microservice-belonging[67]: = 1
 (1)microservice-belonging[68]: = 1
 (1)microservice-belonging[71]: = 1
 (1)microservice-belonging[72]: = 1
 (1)microservice-belonging[73]: = 1
 (1)microservice-belonging[74]: = 1
 (1)microservice-belonging[78]: = 1
 (1)microservice-belonging[85]: = 1
 (1)microservice-belonging[86]: = 1
 (1)microservice-belonging[87]: = 1
 (1)microservice-belonging[88]: = 1
 (1)microservice-belonging[89]: = 1
 (1)microservice-belonging[90]: = 1
 (1)microservice-belonging[91]: = 1
 (1)microservice-belonging[92]: = 1
 (1)microservice-belonging[93]: = 1
 (1)microservice-belonging[94]: = 1
 (1)microservice-belonging[95]: = 1
 (1)microservice-belonging[96]: = 1
 (1)microservice-belonging[97]: = 1
 (1)microservice-belonging[98]: = 1
 (1)microservice-belonging[100]: = 1
 (1)microservice-belonging[101]: = 1
 (1)microservice-belonging[104]: = 1
 (1)microservice-belonging[105]: = 1
 (6)bonding-y-to-z[1,15]: y[1,15] = 0
 (6)bonding-y-to-z[2,28]: y[2,28] = 0
 (6)bonding-y-to-z[2,4]: y[2,4] = 0
 (6)bonding-y-to-z[3,15]: y[3,15] = 0
 (6)bonding-y-to-z[5,15]: y[5,15] = 0
 (6)bonding-y-to-z[6,15]: y[6,15] = 0
 (6)bonding-y-to-z[7,15]: y[7,15] = 0
 (6)bonding-y-to-z[8,15]: y[8,15] = 0
 (6)bonding-y-to-z[9,15]: y[9,15] = 0
 (6)bonding-y-to-z[10,15]: y[10,15] = 0
 (6)bonding-y-to-z[11,15]: y[11,15] = 0
 (6)bonding-y-to-z[12,15]: y[12,15] = 0
 (6)bonding-y-to-z[13,28]: y[13,28] = 0
 (6)bonding-y-to-z[13,17]: y[13,17] = 0
 (6)bonding-y-to-z[14,15]: y[14,15] = 0
 (6)bonding-y-to-z[15,28]: y[15,28] = 0
 (6)bonding-y-to-z[15,4]: y[15,4] = 0
 (6)bonding-y-to-z[17,32]: y[17,32] = 0
 (6)bonding-y-to-z[18,22]: y[18,22] = 0
 (6)bonding-y-to-z[19,4]: y[19,4] = 0
 (6)bonding-y-to-z[21,28]: y[21,28] = 0
 (6)bonding-y-to-z[21,22]: y[21,22] = 0
 (6)bonding-y-to-z[22,20]: y[22,20] = 0
 (6)bonding-y-to-z[23,19]: y[23,19] = 0
 (6)bonding-y-to-z[24,27]: y[24,27] = 0
 (6)bonding-y-to-z[24,24]: y[24,24] = 0
 (6)bonding-y-to-z[26,26]: y[26,26] = 0
 (6)bonding-y-to-z[29,29]: y[29,29] = 0
 (6)bonding-y-to-z[32,28]: y[32,28] = 0
 (6)bonding-y-to-z[33,24]: y[33,24] = 0
 (6)bonding-y-to-z[33,32]: y[33,32] = 0
 (6)bonding-y-to-z[34,30]: y[34,30] = 0
 (6)bonding-y-to-z[34,32]: y[34,32] = 0
 (6)bonding-y-to-z[35,31]: y[35,31] = 0
 (6)bonding-y-to-z[35,32]: y[35,32] = 0
 (6)bonding-y-to-z[36,32]: y[36,32] = 0
 (6)bonding-y-to-z[37,29]: y[37,29] = 0
 (6)bonding-y-to-z[37,32]: y[37,32] = 0
 (6)bonding-y-to-z[38,31]: y[38,31] = 0
 (6)bonding-y-to-z[38,32]: y[38,32] = 0
 (6)bonding-y-to-z[39,28]: y[39,28] = 0
 (6)bonding-y-to-z[39,42]: y[39,42] = 0
 (6)bonding-y-to-z[39,40]: y[39,40] = 0
 (6)bonding-y-to-z[41,25]: y[41,25] = 0
 (6)bonding-y-to-z[41,42]: y[41,42] = 0
 (6)bonding-y-to-z[42,28]: y[42,28] = 0
 (6)bonding-y-to-z[42,31]: y[42,31] = 0
 (6)bonding-y-to-z[42,30]: y[42,30] = 0
 (6)bonding-y-to-z[42,29]: y[42,29] = 0
 (6)bonding-y-to-z[42,32]: y[42,32] = 0
 (6)bonding-y-to-z[42,24]: y[42,24] = 0
 (6)bonding-y-to-z[42,25]: y[42,25] = 0
 (6)bonding-y-to-z[42,26]: y[42,26] = 0
 (6)bonding-y-to-z[43,44]: y[43,44] = 0
 (6)bonding-y-to-z[44,32]: y[44,32] = 0
 (6)bonding-y-to-z[44,28]: y[44,28] = 0
 (6)bonding-y-to-z[44,47]: y[44,47] = 0
 (6)bonding-y-to-z[46,44]: y[46,44] = 0
 (6)bonding-y-to-z[47,32]: y[47,32] = 0
 (6)bonding-y-to-z[63,31]: y[63,31] = 0
 (6)bonding-y-to-z[68,67]: y[68,67] = 0
 (6)bonding-y-to-z[72,90]: y[72,90] = 0
 (6)bonding-y-to-z[73,42]: y[73,42] = 0
 (6)bonding-y-to-z[73,78]: y[73,78] = 0
 (6)bonding-y-to-z[74,97]: y[74,97] = 0
 (6)bonding-y-to-z[85,36]: y[85,36] = 0
 (6)bonding-y-to-z[87,86]: y[87,86] = 0
 (6)bonding-y-to-z[88,86]: y[88,86] = 0
 (6)bonding-y-to-z[89,73]: y[89,73] = 0
 (6)bonding-y-to-z[89,71]: y[89,71] = 0
 (6)bonding-y-to-z[89,97]: y[89,97] = 0
 (6)bonding-y-to-z[90,97]: y[90,97] = 0
 (6)bonding-y-to-z[90,47]: y[90,47] = 0
 (6)bonding-y-to-z[91,32]: y[91,32] = 0
 (6)bonding-y-to-z[92,100]: y[92,100] = 0
 (6)bonding-y-to-z[92,32]: y[92,32] = 0
 (6)bonding-y-to-z[93,28]: y[93,28] = 0
 (6)bonding-y-to-z[94,78]: y[94,78] = 0
 (6)bonding-y-to-z[94,101]: y[94,101] = 0
 (6)bonding-y-to-z[95,78]: y[95,78] = 0
 (6)bonding-y-to-z[95,101]: y[95,101] = 0
 (6)bonding-y-to-z[96,95]: y[96,95] = 0
 (6)bonding-y-to-z[96,93]: y[96,93] = 0
 (6)bonding-y-to-z[96,32]: y[96,32] = 0
 (6)bonding-y-to-z[98,94]: y[98,94] = 0
 (6)bonding-y-to-z[98,93]: y[98,93] = 0
 (6)bonding-y-to-z[98,32]: y[98,32] = 0
 (6)bonding-y-to-z[104,78]: y[104,78] = 0
 (6)bonding-y-to-z[105,78]: y[105,78] = 0
 (6)bonding-y-to-z[105,101]: y[105,101] = 0
 (8)bonding-y-to-communities[1,15]: y[1,15] = 1
 (8)bonding-y-to-communities[2,4]: y[2,4] = 1
 (8)bonding-y-to-communities[3,15]: y[3,15] = 1
 (8)bonding-y-to-communities[5,15]: y[5,15] = 1
 (8)bonding-y-to-communities[6,15]: y[6,15] = 1
 (8)bonding-y-to-communities[7,15]: y[7,15] = 1
 (8)bonding-y-to-communities[8,15]: y[8,15] = 1
 (8)bonding-y-to-communities[9,15]: y[9,15] = 1
 (8)bonding-y-to-communities[10,15]: y[10,15] = 1
 (8)bonding-y-to-communities[11,15]: y[11,15] = 1
 (8)bonding-y-to-communities[12,15]: y[12,15] = 1
 (8)bonding-y-to-communities[13,28]: y[13,28] = 1
 (8)bonding-y-to-communities[13,17]: y[13,17] = 1
 (8)bonding-y-to-communities[14,15]: y[14,15] = 1
 (8)bonding-y-to-communities[18,22]: y[18,22] = 1
 (8)bonding-y-to-communities[19,4]: y[19,4] = 1
 (8)bonding-y-to-communities[21,22]: y[21,22] = 1
 (8)bonding-y-to-communities[22,20]: y[22,20] = 1
 (8)bonding-y-to-communities[23,19]: y[23,19] = 1
 (8)bonding-y-to-communities[24,27]: y[24,27] = 1
 (8)bonding-y-to-communities[24,24]: y[24,24] = 1
 (8)bonding-y-to-communities[26,26]: y[26,26] = 1
 (8)bonding-y-to-communities[29,29]: y[29,29] = 1
 (8)bonding-y-to-communities[33,24]: y[33,24] = 1
 (8)bonding-y-to-communities[34,30]: y[34,30] = 1
 (8)bonding-y-to-communities[35,31]: y[35,31] = 1
 (8)bonding-y-to-communities[35,32]: y[35,32] = 1
 (8)bonding-y-to-communities[36,32]: y[36,32] = 1
 (8)bonding-y-to-communities[37,29]: y[37,29] = 1
 (8)bonding-y-to-communities[37,32]: y[37,32] = 1
 (8)bonding-y-to-communities[38,31]: y[38,31] = 1
 (8)bonding-y-to-communities[38,32]: y[38,32] = 1
 (8)bonding-y-to-communities[39,28]: y[39,28] = 1
 (8)bonding-y-to-communities[39,42]: y[39,42] = 1
 (8)bonding-y-to-communities[39,40]: y[39,40] = 1
 (8)bonding-y-to-communities[41,25]: y[41,25] = 1
 (8)bonding-y-to-communities[41,42]: y[41,42] = 1
 (8)bonding-y-to-communities[42,28]: y[42,28] = 1
 (8)bonding-y-to-communities[42,30]: y[42,30] = 1
 (8)bonding-y-to-communities[42,25]: y[42,25] = 1
 (8)bonding-y-to-communities[42,26]: y[42,26] = 1
 (8)bonding-y-to-communities[43,44]: y[43,44] = 1
 (8)bonding-y-to-communities[44,47]: y[44,47] = 1
 (8)bonding-y-to-communities[46,44]: y[46,44] = 1
 (8)bonding-y-to-communities[63,31]: y[63,31] = 1
 (8)bonding-y-to-communities[68,67]: y[68,67] = 1
 (8)bonding-y-to-communities[72,90]: y[72,90] = 1
 (8)bonding-y-to-communities[74,97]: y[74,97] = 1
 (8)bonding-y-to-communities[85,36]: y[85,36] = 1
 (8)bonding-y-to-communities[87,86]: y[87,86] = 1
 (8)bonding-y-to-communities[88,86]: y[88,86] = 1
 (8)bonding-y-to-communities[89,73]: y[89,73] = 1
 (8)bonding-y-to-communities[89,71]: y[89,71] = 1
 (8)bonding-y-to-communities[89,97]: y[89,97] = 1
 (8)bonding-y-to-communities[90,97]: y[90,97] = 1
 (8)bonding-y-to-communities[90,47]: y[90,47] = 1
 (8)bonding-y-to-communities[91,32]: y[91,32] = 1
 (8)bonding-y-to-communities[92,100]: y[92,100] = 1
 (8)bonding-y-to-communities[92,32]: y[92,32] = 1
 (8)bonding-y-to-communities[94,78]: y[94,78] = 1
 (8)bonding-y-to-communities[94,101]: y[94,101] = 1
 (8)bonding-y-to-communities[95,78]: y[95,78] = 1
 (8)bonding-y-to-communities[95,101]: y[95,101] = 1
 (8)bonding-y-to-communities[96,95]: y[96,95] = 1
 (8)bonding-y-to-communities[96,93]: y[96,93] = 1
 (8)bonding-y-to-communities[98,94]: y[98,94] = 1
 (8)bonding-y-to-communities[98,93]: y[98,93] = 1
 (8)bonding-y-to-communities[104,78]: y[104,78] = 1
 (8)bonding-y-to-communities[105,78]: y[105,78] = 1
 (8)bonding-y-to-communities[105,101]: y[105,101] = 1
Bounds
 Constant = 1
Binaries
 y[1,15] y[2,28] y[2,4] y[3,15] y[5,15] y[6,15] y[7,15] y[8,15] y[9,15]
 y[10,15] y[11,15] y[12,15] y[13,28] y[13,17] y[14,15] y[15,28] y[15,4]
 y[17,32] y[18,22] y[19,4] y[21,28] y[21,22] y[22,20] y[23,19] y[24,27]
 y[24,24] y[26,26] y[29,29] y[32,28] y[33,24] y[33,32] y[34,30] y[34,32]
 y[35,31] y[35,32] y[36,32] y[37,29] y[37,32] y[38,31] y[38,32] y[39,28]
 y[39,42] y[39,40] y[41,25] y[41,42] y[42,28] y[42,31] y[42,30] y[42,29]
 y[42,32] y[42,24] y[42,25] y[42,26] y[43,44] y[44,32] y[44,28] y[44,47]
 y[46,44] y[47,32] y[63,31] y[68,67] y[72,90] y[73,42] y[73,78] y[74,97]
 y[85,36] y[87,86] y[88,86] y[89,73] y[89,71] y[89,97] y[90,97] y[90,47]
 y[91,32] y[92,100] y[92,32] y[93,28] y[94,78] y[94,101] y[95,78] y[95,101]
 y[96,95] y[96,93] y[96,32] y[98,94] y[98,93] y[98,32] y[104,78] y[105,78]
 y[105,101]
End
